p tdp 20 90
1 2
1 4
1 5
1 7
1 11
1 12
1 13
1 18
2 6
2 7
2 11
2 14
2 15
2 17
2 18
2 19
2 20
3 4
3 7
3 10
3 12
3 14
3 15
3 16
3 20
4 5
4 11
4 13
4 15
4 16
4 18
4 19
4 20
5 7
5 9
5 10
5 13
5 14
5 18
5 20
6 7
6 8
6 9
6 10
6 12
6 13
6 14
6 16
6 17
7 8
7 10
7 11
7 15
7 18
8 9
8 11
8 13
8 14
8 16
8 19
8 20
9 10
9 12
9 13
9 17
9 18
9 19
9 20
10 11
10 15
10 19
11 16
11 17
11 20
12 13
12 15
12 16
12 17
13 14
13 17
13 20
14 15
14 16
15 16
15 17
15 18
15 20
16 17
16 20
17 18
